NAME : RC201.1406937.tour
COMMENT : Cost = 0_1406937
COMMENT : Found by LKH [Keld Helsgaun] Wed Sep 13 22:10:51 2017
TYPE : TOUR
DIMENSION : 104
TOUR_SECTION
1
66
15
48
60
76
17
16
12
13
74
79
80
8
7
9
47
4
5
2
56
69
103
93
96
64
34
29
28
30
32
31
63
68
72
91
100
58
87
88
10
54
11
98
75
14
18
61
101
71
102
43
37
40
73
46
6
3
99
89
62
45
41
39
42
82
95
51
35
33
27
90
49
25
26
78
59
104
70
83
53
84
65
20
24
22
19
77
86
85
52
50
23
21
67
57
97
55
38
44
36
94
92
81
-1
EOF
